Route #1: 89 98 99 62 71
Route #2: 52 91 50
Route #3: 20 41 22 15
Route #4: 7 2 45 43 29 36 72 57
Route #5: 83 51 81
Route #6: 54 70 1
Route #7: 93 75
Route #8: 21 56 94 80
Route #9: 27 97 19
Route #10: 59 60 82
Route #11: 39 10 18
Route #12: 30 85 11 79
Route #13: 58 12 5
Route #14: 38 47 26 48 96 64 34
Route #15: 74 13 4
Route #16: 32 33 53 73 95 24
Route #17: 69 16 55 76
Route #18: 66 84 90 68
Route #19: 14 49 6 37 87
Route #20: 8 17
Route #21: 86 9 92
Route #22: 31 46 35
Route #23: 44 67 88 40
Route #24: 28 42 78 65 25
Route #25: 63 77 3
Route #26: 23 61 100
Cost 27591.0000
Time 16.0005